certificates/rado_a7_c65_N14.cnf
c Rad2 upper bound instance: x1 + 7*x2 - x3 = 65, interval [1,14]
p cnf 14 56
1 6 10 0
-1 -6 -10 0
1 11 13 0
-1 -11 -13 0
2 7 10 0
-2 -7 -10 0
2 11 14 0
-2 -11 -14 0
1 3 9 0
-1 -3 -9 0
3 8 10 0
-3 -8 -10 0
2 4 9 0
-2 -4 -9 0
4 9 10 0
-4 -9 -10 0
3 5 9 0
-3 -5 -9 0
5 10 0
-5 -10 0
4 6 9 0
-4 -6 -9 0
6 10 11 0
-6 -10 -11 0
5 7 9 0
-5 -7 -9 0
7 10 12 0
-7 -10 -12 0
6 8 9 0
-6 -8 -9 0
8 10 13 0
-8 -10 -13 0
7 9 0
-7 -9 0
9 10 14 0
-9 -10 -14 0
1 8 10 0
-1 -8 -10 0
8 9 10 0
-8 -9 -10 0
2 8 11 0
-2 -8 -11 0
9 11 0
-9 -11 0
3 8 12 0
-3 -8 -12 0
9 10 12 0
-9 -10 -12 0
4 8 13 0
-4 -8 -13 0
9 11 13 0
-9 -11 -13 0
5 8 14 0
-5 -8 -14 0
9 12 14 0
-9 -12 -14 0
