certificates/rado_a7_c65_N14.drat
-12 -14 0
d -12 -9 -14 0
10 12 0
-14 0
12 0
-10 0
5 0
9 0
-3 0
-7 0
-11 0
8 0
2 0
6 0
0
